SPARKNaCl/why3-z3/sparknacl-aes.adb_379_26_initialization_1.smt2
;; produced by z3_gnatprove.drv ;;
(set-info :smt-lib-version 2.5)
(set-info :source |VC generated by SPARK 2014|)
(set-info :category industrial)
(set-info :status unknown)
;;; generated by SMT-LIB2 driver
;;; SMT-LIB2 driver: bit-vectors, common part
;;; SMT-LIB2: integer arithmetic
(declare-sort u32 0)

;; "to_rep"
(declare-fun to_rep (u32) (_ BitVec 32))

;; "of_rep"
(declare-fun of_rep ((_ BitVec 32)) u32)

;; "inversion_axiom"
(assert
  (forall ((x u32)) (! (= (of_rep (to_rep x)) x) :pattern ((to_rep x)) )))

;; "range_axiom"
(assert true)

;; "coerce_axiom"
(assert
  (forall ((x (_ BitVec 32)))
    (! (= (to_rep (of_rep x)) x) :pattern ((to_rep (of_rep x))) )))

(declare-sort map1 0)

(declare-datatypes ()
  ((map__ref (map__refqtmk (map__content map1)))))

;; "has_bounds"
(declare-fun has_bounds (map1
  Int
  Int) Bool)

;; "get"
(declare-fun get (map1
  Int) u32)

(declare-sort byte 0)

;; "to_rep"
(declare-fun to_rep1 (byte) (_ BitVec 8))

;; "of_rep"
(declare-fun of_rep1 ((_ BitVec 8)) byte)

;; "inversion_axiom"
(assert
  (forall ((x byte)) (! (= (of_rep1 (to_rep1 x)) x) :pattern ((to_rep1 x)) )))

;; "range_axiom"
(assert true)

;; "coerce_axiom"
(assert
  (forall ((x (_ BitVec 8)))
    (! (= (to_rep1 (of_rep1 x)) x) :pattern ((to_rep1 (of_rep1 x))) )))

(declare-sort map2 0)

(declare-datatypes ()
  ((map__ref1 (map__refqtmk1 (map__content1 map2)))))

;; "has_bounds"
(declare-fun has_bounds1 (map2
  Int
  Int) Bool)

;; "get"
(declare-fun get1 (map2
  Int) byte)

(declare-datatypes ()
  ((byte__init_wrapper
   (byte__init_wrapperqtmk (rec__value byte)(us_attr__init Bool)))))

(declare-sort map3 0)

(declare-datatypes ()
  ((map__ref2 (map__refqtmk2 (map__content2 map3)))))

;; "has_bounds"
(declare-fun has_bounds2 (map3
  Int
  Int) Bool)

;; "get"
(declare-fun get2 (map3
  Int) byte__init_wrapper)

;; "set"
(declare-fun set (map3
  Int
  byte__init_wrapper) map3)

;; "set_eq"
(assert
  (forall ((a map3) (i Int) (v byte__init_wrapper))
    (! (= (get2 (set a i v) i) v) :pattern ((set a i v)) )))

;; "set_neq"
(assert
  (forall ((a map3) (i Int) (v byte__init_wrapper))
    (! (forall ((j Int))
         (! (=> (not (= i j)) (= (get2 (set a i v) j) (get2 a j))) :pattern (
         (get2
           a
           j)) :pattern ((get2 (set a i v) j)) )) :pattern ((set a i v)) )))

;; "set_has_bounds"
(assert
  (forall ((a map3) (i Int) (f Int) (l Int) (v byte__init_wrapper))
    (! (=>
         (and (<= f i) (<= i l))
         (=> (has_bounds2 a f l) (has_bounds2 (set a i v) f l))) :pattern (
    (has_bounds2
      (set a i v)
      f
      l)) )))

;; "__is_initialized"
(define-fun us_is_initialized ((temp___expr_809 map3)) Bool
  (forall ((temp___810 Int))
    (=>
      (and (<= 0 temp___810) (<= temp___810 3))
      (= (us_attr__init (get2 temp___expr_809 temp___810)) true))))

;; "convert"
(declare-fun convert (map3) map2)

;; "convert__def"
(assert
  (forall ((a map3))
    (forall ((temp___195 Int))
      (= (to_rep1 (of_rep1 (to_rep1 (rec__value (get2 a temp___195))))) 
      (to_rep1
        (get1 (convert a) temp___195))))))

;; "convert"
(declare-fun convert1 (map2) map3)

;; "convert__def"
(assert
  (forall ((a map2))
    (let ((b (convert1 a)))
      (forall ((temp___196 Int))
        (and
          (= (us_attr__init
               (byte__init_wrapperqtmk
                 (of_rep1 (to_rep1 (get1 a temp___196)))
                 true)) (us_attr__init (get2 b temp___196)))
          (= (to_rep1
               (rec__value
                 (byte__init_wrapperqtmk
                   (of_rep1 (to_rep1 (get1 a temp___196)))
                   true))) (to_rep1 (rec__value (get2 b temp___196)))))))))

(declare-const state map1)

(declare-const column_old map2)

(declare-const column_0 map3)

(declare-const column_1 map3)

(declare-const column_2 map3)

(declare-const column_3 map3)

;; "column_3'unused"
(define-fun column_3qtunused () map__ref2
  (map__refqtmk2 column_3))

;; "column_2'unused"
(define-fun column_2qtunused () map__ref2
  (map__refqtmk2 column_2))

;; "column_1'unused"
(define-fun column_1qtunused () map__ref2
  (map__refqtmk2 column_1))

;; "column_0'unused"
(define-fun column_0qtunused () map__ref2
  (map__refqtmk2 column_0))

;; "column_old'unused"
(define-fun column_oldqtunused () map__ref1
  (map__refqtmk1 column_old))

;; "state'unused"
(define-fun stateqtunused () map__ref
  (map__refqtmk state))

;; "Assume"
(assert (has_bounds state 0 3))

;; "Assume"
(assert true)

;; "Assume"
(assert (has_bounds1 column_old 0 3))

;; "Assume"
(assert (has_bounds2 column_0 0 3))

;; "Assume"
(assert (has_bounds2 column_1 0 3))

;; "Assume"
(assert (has_bounds2 column_2 0 3))

;; "Assume"
(assert (has_bounds2 column_3 0 3))

;; "map__content'result'unused"
(define-fun map__contentqtresultqtunused () map2
  column_old)

;; "temp___compl_1560"
(define-fun temp___compl_1560 () map3
  (convert1 column_old))

;; "convert'result'unused"
(define-fun convertqtresultqtunused () map3
  temp___compl_1560)

;; "param__output'unused"
(define-fun param__outputqtunused () map__ref2
  (map__refqtmk2 temp___compl_1560))

;; "map__ref'mk'result'unused"
(define-fun map__refqtmkqtresultqtunused () map__ref2
  (map__refqtmk2 temp___compl_1560))

;; "map__content'result'unused"
(define-fun map__contentqtresultqtunused1 () map1
  state)

;; "o"
(define-fun o () u32
  (get state 0))

;; "get'result'unused"
(define-fun getqtresultqtunused () u32
  o)

(declare-const o1 (_ BitVec 32))

;; "Ensures"
(assert (= (to_rep o) o1))

;; "to_rep'result'unused"
(define-fun to_repqtresultqtunused () (_ BitVec 32)
  o1)

(declare-const param__output map3)

;; "param__output'unused"
(define-fun param__outputqtunused1 () map__ref2
  (map__refqtmk2 param__output))

;; "H"
(assert (us_is_initialized param__output))

;; "H"
(assert (has_bounds2 param__output 0 3))

;; "H"
(assert true)

;; "H"
(assert true)

;; "Assert"
(assert (us_is_initialized param__output))

;; "map__content'result'unused"
(define-fun map__contentqtresultqtunused2 () map3
  param__output)

;; "temp___1564"
(define-fun temp___1564 () map2
  (convert param__output))

;; "convert'result'unused"
(define-fun convertqtresultqtunused1 () map2
  temp___1564)

(declare-const column_old1 map2)

;; "column_old'unused"
(define-fun column_oldqtunused1 () map__ref1
  (map__refqtmk1 column_old1))

;; "H"
(assert (= column_old1 temp___1564))

;; "map__content'result'unused"
(define-fun map__contentqtresultqtunused3 () map2
  column_old1)

;; "o"
(define-fun o2 () byte
  (get1 column_old1 0))

;; "get'result'unused"
(define-fun getqtresultqtunused1 () byte
  o2)

(declare-const o3 (_ BitVec 8))

;; "Ensures"
(assert (= (to_rep1 o2) o3))

;; "to_rep'result'unused"
(define-fun to_repqtresultqtunused1 () (_ BitVec 8)
  o3)

(declare-const o4 byte)

;; "Ensures"
(assert (= (to_rep1 o4) o3))

;; "of_rep'result'unused"
(define-fun of_repqtresultqtunused () byte
  o4)

;; "o"
(define-fun o5 () byte__init_wrapper
  (byte__init_wrapperqtmk o4 true))

;; "to_wrapper'result'unused"
(define-fun to_wrapperqtresultqtunused () byte__init_wrapper
  o5)

;; "map__content'result'unused"
(define-fun map__contentqtresultqtunused4 () map3
  column_0)

;; "o"
(define-fun o6 () map3
  (set column_0 0 o5))

;; "set'result'unused"
(define-fun setqtresultqtunused () map3
  o6)

(declare-const column_01 map3)

;; "column_0'unused"
(define-fun column_0qtunused1 () map__ref2
  (map__refqtmk2 column_01))

;; "H"
(assert (= column_01 o6))

;; "map__content'result'unused"
(define-fun map__contentqtresultqtunused5 () map2
  column_old1)

;; "o"
(define-fun o7 () byte
  (get1 column_old1 1))

;; "get'result'unused"
(define-fun getqtresultqtunused2 () byte
  o7)

(declare-const o8 (_ BitVec 8))

;; "Ensures"
(assert (= (to_rep1 o7) o8))

;; "to_rep'result'unused"
(define-fun to_repqtresultqtunused2 () (_ BitVec 8)
  o8)

(declare-const o9 byte)

;; "Ensures"
(assert (= (to_rep1 o9) o8))

;; "of_rep'result'unused"
(define-fun of_repqtresultqtunused1 () byte
  o9)

;; "o"
(define-fun o10 () byte__init_wrapper
  (byte__init_wrapperqtmk o9 true))

;; "to_wrapper'result'unused"
(define-fun to_wrapperqtresultqtunused1 () byte__init_wrapper
  o10)

;; "map__content'result'unused"
(define-fun map__contentqtresultqtunused6 () map3
  column_3)

;; "o"
(define-fun o11 () map3
  (set column_3 1 o10))

;; "set'result'unused"
(define-fun setqtresultqtunused1 () map3
  o11)

(declare-const column_31 map3)

;; "column_3'unused"
(define-fun column_3qtunused1 () map__ref2
  (map__refqtmk2 column_31))

;; "H"
(assert (= column_31 o11))

;; "map__content'result'unused"
(define-fun map__contentqtresultqtunused7 () map2
  column_old1)

;; "o"
(define-fun o12 () byte
  (get1 column_old1 2))

;; "get'result'unused"
(define-fun getqtresultqtunused3 () byte
  o12)

(declare-const o13 (_ BitVec 8))

;; "Ensures"
(assert (= (to_rep1 o12) o13))

;; "to_rep'result'unused"
(define-fun to_repqtresultqtunused3 () (_ BitVec 8)
  o13)

(declare-const o14 byte)

;; "Ensures"
(assert (= (to_rep1 o14) o13))

;; "of_rep'result'unused"
(define-fun of_repqtresultqtunused2 () byte
  o14)

;; "o"
(define-fun o15 () byte__init_wrapper
  (byte__init_wrapperqtmk o14 true))

;; "to_wrapper'result'unused"
(define-fun to_wrapperqtresultqtunused2 () byte__init_wrapper
  o15)

;; "map__content'result'unused"
(define-fun map__contentqtresultqtunused8 () map3
  column_2)

;; "o"
(define-fun o16 () map3
  (set column_2 2 o15))

;; "set'result'unused"
(define-fun setqtresultqtunused2 () map3
  o16)

(declare-const column_21 map3)

;; "column_2'unused"
(define-fun column_2qtunused1 () map__ref2
  (map__refqtmk2 column_21))

;; "H"
(assert (= column_21 o16))

;; "map__content'result'unused"
(define-fun map__contentqtresultqtunused9 () map2
  column_old1)

;; "o"
(define-fun o17 () byte
  (get1 column_old1 3))

;; "get'result'unused"
(define-fun getqtresultqtunused4 () byte
  o17)

(declare-const o18 (_ BitVec 8))

;; "Ensures"
(assert (= (to_rep1 o17) o18))

;; "to_rep'result'unused"
(define-fun to_repqtresultqtunused4 () (_ BitVec 8)
  o18)

(declare-const o19 byte)

;; "Ensures"
(assert (= (to_rep1 o19) o18))

;; "of_rep'result'unused"
(define-fun of_repqtresultqtunused3 () byte
  o19)

;; "o"
(define-fun o20 () byte__init_wrapper
  (byte__init_wrapperqtmk o19 true))

;; "to_wrapper'result'unused"
(define-fun to_wrapperqtresultqtunused3 () byte__init_wrapper
  o20)

;; "map__content'result'unused"
(define-fun map__contentqtresultqtunused10 () map3
  column_1)

;; "o"
(define-fun o21 () map3
  (set column_1 3 o20))

;; "set'result'unused"
(define-fun setqtresultqtunused3 () map3
  o21)

(declare-const column_11 map3)

;; "column_1'unused"
(define-fun column_1qtunused1 () map__ref2
  (map__refqtmk2 column_11))

;; "H"
(assert (= column_11 o21))

;; "map__content'result'unused"
(define-fun map__contentqtresultqtunused11 () map2
  column_old1)

;; "temp___compl_1570"
(define-fun temp___compl_1570 () map3
  (convert1 column_old1))

;; "convert'result'unused"
(define-fun convertqtresultqtunused2 () map3
  temp___compl_1570)

;; "param__output'unused"
(define-fun param__outputqtunused2 () map__ref2
  (map__refqtmk2 temp___compl_1570))

;; "map__ref'mk'result'unused"
(define-fun map__refqtmkqtresultqtunused1 () map__ref2
  (map__refqtmk2 temp___compl_1570))

;; "map__content'result'unused"
(define-fun map__contentqtresultqtunused12 () map1
  state)

;; "o"
(define-fun o22 () u32
  (get state 1))

;; "get'result'unused"
(define-fun getqtresultqtunused5 () u32
  o22)

(declare-const o23 (_ BitVec 32))

;; "Ensures"
(assert (= (to_rep o22) o23))

;; "to_rep'result'unused"
(define-fun to_repqtresultqtunused5 () (_ BitVec 32)
  o23)

(declare-const param__output1 map3)

;; "param__output'unused"
(define-fun param__outputqtunused3 () map__ref2
  (map__refqtmk2 param__output1))

;; "H"
(assert (us_is_initialized param__output1))

;; "H"
(assert (has_bounds2 param__output1 0 3))

;; "H"
(assert true)

;; "H"
(assert true)

;; "Assert"
(assert (us_is_initialized param__output1))

;; "map__content'result'unused"
(define-fun map__contentqtresultqtunused13 () map3
  param__output1)

;; "temp___1574"
(define-fun temp___1574 () map2
  (convert param__output1))

;; "convert'result'unused"
(define-fun convertqtresultqtunused3 () map2
  temp___1574)

(declare-const column_old2 map2)

;; "column_old'unused"
(define-fun column_oldqtunused2 () map__ref1
  (map__refqtmk1 column_old2))

;; "H"
(assert (= column_old2 temp___1574))

;; "map__content'result'unused"
(define-fun map__contentqtresultqtunused14 () map2
  column_old2)

;; "o"
(define-fun o24 () byte
  (get1 column_old2 0))

;; "get'result'unused"
(define-fun getqtresultqtunused6 () byte
  o24)

(declare-const o25 (_ BitVec 8))

;; "Ensures"
(assert (= (to_rep1 o24) o25))

;; "to_rep'result'unused"
(define-fun to_repqtresultqtunused6 () (_ BitVec 8)
  o25)

(declare-const o26 byte)

;; "Ensures"
(assert (= (to_rep1 o26) o25))

;; "of_rep'result'unused"
(define-fun of_repqtresultqtunused4 () byte
  o26)

;; "o"
(define-fun o27 () byte__init_wrapper
  (byte__init_wrapperqtmk o26 true))

;; "to_wrapper'result'unused"
(define-fun to_wrapperqtresultqtunused4 () byte__init_wrapper
  o27)

;; "map__content'result'unused"
(define-fun map__contentqtresultqtunused15 () map3
  column_11)

;; "o"
(define-fun o28 () map3
  (set column_11 0 o27))

;; "set'result'unused"
(define-fun setqtresultqtunused4 () map3
  o28)

(declare-const column_12 map3)

;; "column_1'unused"
(define-fun column_1qtunused2 () map__ref2
  (map__refqtmk2 column_12))

;; "H"
(assert (= column_12 o28))

;; "map__content'result'unused"
(define-fun map__contentqtresultqtunused16 () map2
  column_old2)

;; "o"
(define-fun o29 () byte
  (get1 column_old2 1))

;; "get'result'unused"
(define-fun getqtresultqtunused7 () byte
  o29)

(declare-const o30 (_ BitVec 8))

;; "Ensures"
(assert (= (to_rep1 o29) o30))

;; "to_rep'result'unused"
(define-fun to_repqtresultqtunused7 () (_ BitVec 8)
  o30)

(declare-const o31 byte)

;; "Ensures"
(assert (= (to_rep1 o31) o30))

;; "of_rep'result'unused"
(define-fun of_repqtresultqtunused5 () byte
  o31)

;; "o"
(define-fun o32 () byte__init_wrapper
  (byte__init_wrapperqtmk o31 true))

;; "to_wrapper'result'unused"
(define-fun to_wrapperqtresultqtunused5 () byte__init_wrapper
  o32)

;; "map__content'result'unused"
(define-fun map__contentqtresultqtunused17 () map3
  column_01)

;; "o"
(define-fun o33 () map3
  (set column_01 1 o32))

;; "set'result'unused"
(define-fun setqtresultqtunused5 () map3
  o33)

(declare-const column_02 map3)

;; "column_0'unused"
(define-fun column_0qtunused2 () map__ref2
  (map__refqtmk2 column_02))

;; "H"
(assert (= column_02 o33))

;; "map__content'result'unused"
(define-fun map__contentqtresultqtunused18 () map2
  column_old2)

;; "o"
(define-fun o34 () byte
  (get1 column_old2 2))

;; "get'result'unused"
(define-fun getqtresultqtunused8 () byte
  o34)

(declare-const o35 (_ BitVec 8))

;; "Ensures"
(assert (= (to_rep1 o34) o35))

;; "to_rep'result'unused"
(define-fun to_repqtresultqtunused8 () (_ BitVec 8)
  o35)

(declare-const o36 byte)

;; "Ensures"
(assert (= (to_rep1 o36) o35))

;; "of_rep'result'unused"
(define-fun of_repqtresultqtunused6 () byte
  o36)

;; "o"
(define-fun o37 () byte__init_wrapper
  (byte__init_wrapperqtmk o36 true))

;; "to_wrapper'result'unused"
(define-fun to_wrapperqtresultqtunused6 () byte__init_wrapper
  o37)

;; "map__content'result'unused"
(define-fun map__contentqtresultqtunused19 () map3
  column_31)

;; "o"
(define-fun o38 () map3
  (set column_31 2 o37))

;; "set'result'unused"
(define-fun setqtresultqtunused6 () map3
  o38)

(declare-const column_32 map3)

;; "column_3'unused"
(define-fun column_3qtunused2 () map__ref2
  (map__refqtmk2 column_32))

;; "H"
(assert (= column_32 o38))

;; "map__content'result'unused"
(define-fun map__contentqtresultqtunused20 () map2
  column_old2)

;; "o"
(define-fun o39 () byte
  (get1 column_old2 3))

;; "get'result'unused"
(define-fun getqtresultqtunused9 () byte
  o39)

(declare-const o40 (_ BitVec 8))

;; "Ensures"
(assert (= (to_rep1 o39) o40))

;; "to_rep'result'unused"
(define-fun to_repqtresultqtunused9 () (_ BitVec 8)
  o40)

(declare-const o41 byte)

;; "Ensures"
(assert (= (to_rep1 o41) o40))

;; "of_rep'result'unused"
(define-fun of_repqtresultqtunused7 () byte
  o41)

;; "o"
(define-fun o42 () byte__init_wrapper
  (byte__init_wrapperqtmk o41 true))

;; "to_wrapper'result'unused"
(define-fun to_wrapperqtresultqtunused7 () byte__init_wrapper
  o42)

;; "map__content'result'unused"
(define-fun map__contentqtresultqtunused21 () map3
  column_21)

;; "o"
(define-fun o43 () map3
  (set column_21 3 o42))

;; "set'result'unused"
(define-fun setqtresultqtunused7 () map3
  o43)

(declare-const column_22 map3)

;; "column_2'unused"
(define-fun column_2qtunused2 () map__ref2
  (map__refqtmk2 column_22))

;; "H"
(assert (= column_22 o43))

;; "map__content'result'unused"
(define-fun map__contentqtresultqtunused22 () map2
  column_old2)

;; "temp___compl_1580"
(define-fun temp___compl_1580 () map3
  (convert1 column_old2))

;; "convert'result'unused"
(define-fun convertqtresultqtunused4 () map3
  temp___compl_1580)

;; "param__output'unused"
(define-fun param__outputqtunused4 () map__ref2
  (map__refqtmk2 temp___compl_1580))

;; "map__ref'mk'result'unused"
(define-fun map__refqtmkqtresultqtunused2 () map__ref2
  (map__refqtmk2 temp___compl_1580))

;; "map__content'result'unused"
(define-fun map__contentqtresultqtunused23 () map1
  state)

;; "o"
(define-fun o44 () u32
  (get state 2))

;; "get'result'unused"
(define-fun getqtresultqtunused10 () u32
  o44)

(declare-const o45 (_ BitVec 32))

;; "Ensures"
(assert (= (to_rep o44) o45))

;; "to_rep'result'unused"
(define-fun to_repqtresultqtunused10 () (_ BitVec 32)
  o45)

(declare-const param__output2 map3)

;; "param__output'unused"
(define-fun param__outputqtunused5 () map__ref2
  (map__refqtmk2 param__output2))

;; "H"
(assert (us_is_initialized param__output2))

;; "H"
(assert (has_bounds2 param__output2 0 3))

;; "H"
(assert true)

;; "H"
(assert true)

;; Goal "def'vc"
;; File "sparknacl-aes.adb", line 50, characters 0-0
(assert
  (not (us_is_initialized param__output2)))

(check-sat)
